c This is it
p cnf 290 1951
7 8 9 10 0
11 12 13 14 0
15 16 17 18 0
-7 -8 0
-7 -9 0
-7 -10 0
-8 -9 0
-8 -10 0
-9 -10 0
-11 -12 0
-11 -13 0
-11 -14 0
-12 -13 0
-12 -14 0
-13 -14 0
-15 -16 0
-15 -17 0
-15 -18 0
-16 -17 0
-16 -18 0
-17 -18 0
1 2 0
3 4 0
5 6 0
-1 -2 0
-3 -4 0
-5 -6 0
-19 0
20 0
-21 0
-22 0
-23 0
-24 0
-25 0
-26 0
-27 0
-28 0
-29 0
-30 0
-31 0
-187 0
-188 0
-189 0
-190 0
-191 0
-192 0
-193 0
194 0
-195 0
-196 0
-197 0
-198 0
-199 0
-239 0
-240 0
241 0
-242 0
-243 0
-244 0
-245 0
-246 0
-247 0
-248 0
-249 0
-250 0
-251 0
-239 252 0
-252 265 0
-265 278 0
-19 -34 0
-19 -35 0
-19 -36 0
-19 -37 0
-19 -38 0
-19 -39 0
-19 -40 0
-19 -41 0
-19 -42 0
-19 -43 0
-19 -44 0
-32 -47 0
-32 -48 0
-32 -49 0
-32 -50 0
-32 -51 0
-32 -52 0
-32 -53 0
-32 -54 0
-32 -55 0
-32 -56 0
-32 -57 0
-45 -60 0
-45 -61 0
-45 -62 0
-45 -63 0
-45 -64 0
-45 -65 0
-45 -66 0
-45 -67 0
-45 -68 0
-45 -69 0
-45 -70 0
-19 -32 2 0
-32 -45 4 0
-45 -58 6 0
-19 -7 0
-19 -8 0
-19 -9 0
-32 -11 0
-32 -12 0
-32 -13 0
-45 -15 0
-45 -16 0
-45 -17 0
-19 -189 202 0
-19 -190 203 0
-19 -191 204 0
-19 -192 205 0
-19 -193 206 0
-19 -194 207 0
-19 -195 208 0
-19 -196 209 0
-19 -197 210 0
-19 -198 211 0
-19 -199 212 0
-32 -202 215 0
-32 -203 216 0
-32 -204 217 0
-32 -205 218 0
-32 -206 219 0
-32 -207 220 0
-32 -208 221 0
-32 -209 222 0
-32 -210 223 0
-32 -211 224 0
-32 -212 225 0
-45 -215 228 0
-45 -216 229 0
-45 -217 230 0
-45 -218 231 0
-45 -219 232 0
-45 -220 233 0
-45 -221 234 0
-45 -222 235 0
-45 -223 236 0
-45 -224 237 0
-45 -225 238 0
-187 2 200 0
-200 4 213 0
-213 6 226 0
-19 32 1 0
-32 45 3 0
-45 58 5 0
-19 -1 -10 33 0
-32 -3 -14 46 0
-45 -5 -18 59 0
-19 -1 -10 -201 0
-32 -3 -14 -214 0
-45 -5 -18 -227 0
-19 -2 -10 188 0
-32 -4 -14 201 0
-45 -6 -18 214 0
-19 -2 -10 -201 0
-32 -4 -14 -214 0
-45 -6 -18 -227 0
-187 -2 -10 201 0
-200 -4 -14 214 0
-213 -6 -18 227 0
-187 -1 -10 -201 0
-200 -3 -14 -214 0
-213 -5 -18 -227 0
-187 -1 -10 -253 0
-200 -3 -14 -266 0
-213 -5 -18 -279 0
-240 253 0
-253 266 0
-266 279 0
-20 -34 0
-20 -36 0
-20 -37 0
-20 -38 0
-20 -39 0
-20 -40 0
-20 -41 0
-20 -42 0
-20 -43 0
-20 -44 0
-33 -47 0
-33 -49 0
-33 -50 0
-33 -51 0
-33 -52 0
-33 -53 0
-33 -54 0
-33 -55 0
-33 -56 0
-33 -57 0
-46 -60 0
-46 -62 0
-46 -63 0
-46 -64 0
-46 -65 0
-46 -66 0
-46 -67 0
-46 -68 0
-46 -69 0
-46 -70 0
-20 -33 2 0
-33 -46 4 0
-46 -59 6 0
-20 -7 0
-20 -8 0
-33 -11 0
-33 -12 0
-46 -15 0
-46 -16 0
-20 -189 202 0
-20 -191 204 0
-20 -192 205 0
-20 -193 206 0
-20 -194 207 0
-20 -195 208 0
-20 -196 209 0
-20 -197 210 0
-20 -198 211 0
-20 -199 212 0
-33 -202 215 0
-33 -204 217 0
-33 -205 218 0
-33 -206 219 0
-33 -207 220 0
-33 -208 221 0
-33 -209 222 0
-33 -210 223 0
-33 -211 224 0
-33 -212 225 0
-46 -215 228 0
-46 -217 230 0
-46 -218 231 0
-46 -219 232 0
-46 -220 233 0
-46 -221 234 0
-46 -222 235 0
-46 -223 236 0
-46 -224 237 0
-46 -225 238 0
-188 2 201 0
-201 4 214 0
-214 6 227 0
-20 33 1 0
-33 46 3 0
-46 59 5 0
-20 -1 -9 32 0
-33 -3 -13 45 0
-46 -5 -17 58 0
-20 -1 -9 -200 0
-33 -3 -13 -213 0
-46 -5 -17 -226 0
-20 -1 -9 -35 0
-33 -3 -13 -48 0
-46 -5 -17 -61 0
-20 -2 -9 187 0
-33 -4 -13 200 0
-46 -6 -17 213 0
-20 -2 -9 -200 0
-33 -4 -13 -213 0
-46 -6 -17 -226 0
-188 -2 -9 200 0
-201 -4 -13 213 0
-214 -6 -17 226 0
-188 -1 -9 -200 0
-201 -3 -13 -213 0
-214 -5 -17 -226 0
-188 -1 -9 -252 0
-201 -3 -13 -265 0
-214 -5 -17 -278 0
-20 -9 -190 203 0
-33 -13 -203 216 0
-46 -17 -216 229 0
-20 -1 -10 35 0
-33 -3 -14 48 0
-46 -5 -18 61 0
-20 -1 -10 -203 0
-33 -3 -14 -216 0
-46 -5 -18 -229 0
-20 -1 -10 -32 0
-33 -3 -14 -45 0
-46 -5 -18 -58 0
-20 -2 -10 190 0
-33 -4 -14 203 0
-46 -6 -18 216 0
-20 -2 -10 -203 0
-33 -4 -14 -216 0
-46 -6 -18 -229 0
-188 -2 -10 203 0
-201 -4 -14 216 0
-214 -6 -18 229 0
-188 -1 -10 -203 0
-201 -3 -14 -216 0
-214 -5 -18 -229 0
-188 -1 -10 -255 0
-201 -3 -14 -268 0
-214 -5 -18 -281 0
-20 -10 -187 200 0
-33 -14 -200 213 0
-46 -18 -213 226 0
-241 254 0
-254 267 0
-267 280 0
-21 -32 0
-21 -33 0
-21 -35 0
-21 -37 0
-21 -38 0
-21 -39 0
-21 -40 0
-21 -41 0
-21 -42 0
-21 -43 0
-21 -44 0
-34 -45 0
-34 -46 0
-34 -48 0
-34 -50 0
-34 -51 0
-34 -52 0
-34 -53 0
-34 -54 0
-34 -55 0
-34 -56 0
-34 -57 0
-47 -58 0
-47 -59 0
-47 -61 0
-47 -63 0
-47 -64 0
-47 -65 0
-47 -66 0
-47 -67 0
-47 -68 0
-47 -69 0
-47 -70 0
-21 -34 2 0
-34 -47 4 0
-47 -60 6 0
-21 -7 0
-21 -8 0
-21 -9 0
-34 -11 0
-34 -12 0
-34 -13 0
-47 -15 0
-47 -16 0
-47 -17 0
-21 -187 200 0
-21 -188 201 0
-21 -190 203 0
-21 -192 205 0
-21 -193 206 0
-21 -194 207 0
-21 -195 208 0
-21 -196 209 0
-21 -197 210 0
-21 -198 211 0
-21 -199 212 0
-34 -200 213 0
-34 -201 214 0
-34 -203 216 0
-34 -205 218 0
-34 -206 219 0
-34 -207 220 0
-34 -208 221 0
-34 -209 222 0
-34 -210 223 0
-34 -211 224 0
-34 -212 225 0
-47 -213 226 0
-47 -214 227 0
-47 -216 229 0
-47 -218 231 0
-47 -219 232 0
-47 -220 233 0
-47 -221 234 0
-47 -222 235 0
-47 -223 236 0
-47 -224 237 0
-47 -225 238 0
-189 2 202 0
-202 4 215 0
-215 6 228 0
-21 34 1 0
-34 47 3 0
-47 60 5 0
-21 -1 -10 36 0
-34 -3 -14 49 0
-47 -5 -18 62 0
-21 -1 -10 -204 0
-34 -3 -14 -217 0
-47 -5 -18 -230 0
-21 -2 -10 191 0
-34 -4 -14 204 0
-47 -6 -18 217 0
-21 -2 -10 -204 0
-34 -4 -14 -217 0
-47 -6 -18 -230 0
-189 -2 -10 204 0
-202 -4 -14 217 0
-215 -6 -18 230 0
-189 -1 -10 -204 0
-202 -3 -14 -217 0
-215 -5 -18 -230 0
-189 -1 -10 -256 0
-202 -3 -14 -269 0
-215 -5 -18 -282 0
-242 255 0
-255 268 0
-268 281 0
-22 -32 0
-22 -34 0
-22 -36 0
-22 -38 0
-22 -39 0
-22 -40 0
-22 -41 0
-22 -42 0
-22 -43 0
-22 -44 0
-35 -45 0
-35 -47 0
-35 -49 0
-35 -51 0
-35 -52 0
-35 -53 0
-35 -54 0
-35 -55 0
-35 -56 0
-35 -57 0
-48 -58 0
-48 -60 0
-48 -62 0
-48 -64 0
-48 -65 0
-48 -66 0
-48 -67 0
-48 -68 0
-48 -69 0
-48 -70 0
-22 -35 2 0
-35 -48 4 0
-48 -61 6 0
-22 -7 0
-22 -8 0
-35 -11 0
-35 -12 0
-48 -15 0
-48 -16 0
-22 -187 200 0
-22 -189 202 0
-22 -191 204 0
-22 -193 206 0
-22 -194 207 0
-22 -195 208 0
-22 -196 209 0
-22 -197 210 0
-22 -198 211 0
-22 -199 212 0
-35 -200 213 0
-35 -202 215 0
-35 -204 217 0
-35 -206 219 0
-35 -207 220 0
-35 -208 221 0
-35 -209 222 0
-35 -210 223 0
-35 -211 224 0
-35 -212 225 0
-48 -213 226 0
-48 -215 228 0
-48 -217 230 0
-48 -219 232 0
-48 -220 233 0
-48 -221 234 0
-48 -222 235 0
-48 -223 236 0
-48 -224 237 0
-48 -225 238 0
-190 2 203 0
-203 4 216 0
-216 6 229 0
-22 35 1 0
-35 48 3 0
-48 61 5 0
-22 -1 -9 33 0
-35 -3 -13 46 0
-48 -5 -17 59 0
-22 -1 -9 -201 0
-35 -3 -13 -214 0
-48 -5 -17 -227 0
-22 -1 -9 -37 0
-35 -3 -13 -50 0
-48 -5 -17 -63 0
-22 -2 -9 188 0
-35 -4 -13 201 0
-48 -6 -17 214 0
-22 -2 -9 -201 0
-35 -4 -13 -214 0
-48 -6 -17 -227 0
-190 -2 -9 201 0
-203 -4 -13 214 0
-216 -6 -17 227 0
-190 -1 -9 -201 0
-203 -3 -13 -214 0
-216 -5 -17 -227 0
-190 -1 -9 -253 0
-203 -3 -13 -266 0
-216 -5 -17 -279 0
-22 -9 -192 205 0
-35 -13 -205 218 0
-48 -17 -218 231 0
-22 -1 -10 37 0
-35 -3 -14 50 0
-48 -5 -18 63 0
-22 -1 -10 -205 0
-35 -3 -14 -218 0
-48 -5 -18 -231 0
-22 -1 -10 -33 0
-35 -3 -14 -46 0
-48 -5 -18 -59 0
-22 -2 -10 192 0
-35 -4 -14 205 0
-48 -6 -18 218 0
-22 -2 -10 -205 0
-35 -4 -14 -218 0
-48 -6 -18 -231 0
-190 -2 -10 205 0
-203 -4 -14 218 0
-216 -6 -18 231 0
-190 -1 -10 -205 0
-203 -3 -14 -218 0
-216 -5 -18 -231 0
-190 -1 -10 -257 0
-203 -3 -14 -270 0
-216 -5 -18 -283 0
-22 -10 -188 201 0
-35 -14 -201 214 0
-48 -18 -214 227 0
-243 256 0
-256 269 0
-269 282 0
-23 -32 0
-23 -33 0
-23 -35 0
-23 -37 0
-23 -38 0
-23 -39 0
-23 -41 0
-23 -42 0
-23 -43 0
-23 -44 0
-36 -45 0
-36 -46 0
-36 -48 0
-36 -50 0
-36 -51 0
-36 -52 0
-36 -54 0
-36 -55 0
-36 -56 0
-36 -57 0
-49 -58 0
-49 -59 0
-49 -61 0
-49 -63 0
-49 -64 0
-49 -65 0
-49 -67 0
-49 -68 0
-49 -69 0
-49 -70 0
-23 -36 2 0
-36 -49 4 0
-49 -62 6 0
-23 -7 0
-23 -8 0
-36 -11 0
-36 -12 0
-49 -15 0
-49 -16 0
-23 -187 200 0
-23 -188 201 0
-23 -190 203 0
-23 -192 205 0
-23 -193 206 0
-23 -194 207 0
-23 -196 209 0
-23 -197 210 0
-23 -198 211 0
-23 -199 212 0
-36 -200 213 0
-36 -201 214 0
-36 -203 216 0
-36 -205 218 0
-36 -206 219 0
-36 -207 220 0
-36 -209 222 0
-36 -210 223 0
-36 -211 224 0
-36 -212 225 0
-49 -213 226 0
-49 -214 227 0
-49 -216 229 0
-49 -218 231 0
-49 -219 232 0
-49 -220 233 0
-49 -222 235 0
-49 -223 236 0
-49 -224 237 0
-49 -225 238 0
-191 2 204 0
-204 4 217 0
-217 6 230 0
-23 36 1 0
-36 49 3 0
-49 62 5 0
-23 -1 -9 34 0
-36 -3 -13 47 0
-49 -5 -17 60 0
-23 -1 -9 -202 0
-36 -3 -13 -215 0
-49 -5 -17 -228 0
-23 -1 -9 -40 0
-36 -3 -13 -53 0
-49 -5 -17 -66 0
-23 -2 -9 189 0
-36 -4 -13 202 0
-49 -6 -17 215 0
-23 -2 -9 -202 0
-36 -4 -13 -215 0
-49 -6 -17 -228 0
-191 -2 -9 202 0
-204 -4 -13 215 0
-217 -6 -17 228 0
-191 -1 -9 -202 0
-204 -3 -13 -215 0
-217 -5 -17 -228 0
-191 -1 -9 -254 0
-204 -3 -13 -267 0
-217 -5 -17 -280 0
-23 -9 -195 208 0
-36 -13 -208 221 0
-49 -17 -221 234 0
-23 -1 -10 40 0
-36 -3 -14 53 0
-49 -5 -18 66 0
-23 -1 -10 -208 0
-36 -3 -14 -221 0
-49 -5 -18 -234 0
-23 -1 -10 -34 0
-36 -3 -14 -47 0
-49 -5 -18 -60 0
-23 -2 -10 195 0
-36 -4 -14 208 0
-49 -6 -18 221 0
-23 -2 -10 -208 0
-36 -4 -14 -221 0
-49 -6 -18 -234 0
-191 -2 -10 208 0
-204 -4 -14 221 0
-217 -6 -18 234 0
-191 -1 -10 -208 0
-204 -3 -14 -221 0
-217 -5 -18 -234 0
-191 -1 -10 -260 0
-204 -3 -14 -273 0
-217 -5 -18 -286 0
-23 -10 -189 202 0
-36 -14 -202 215 0
-49 -18 -215 228 0
-244 257 0
-257 270 0
-270 283 0
-24 -32 0
-24 -33 0
-24 -34 0
-24 -36 0
-24 -39 0
-24 -40 0
-24 -42 0
-24 -43 0
-24 -44 0
-37 -45 0
-37 -46 0
-37 -47 0
-37 -49 0
-37 -52 0
-37 -53 0
-37 -55 0
-37 -56 0
-37 -57 0
-50 -58 0
-50 -59 0
-50 -60 0
-50 -62 0
-50 -65 0
-50 -66 0
-50 -68 0
-50 -69 0
-50 -70 0
-24 -37 2 0
-37 -50 4 0
-50 -63 6 0
-24 -7 0
-37 -11 0
-50 -15 0
-24 -187 200 0
-24 -188 201 0
-24 -189 202 0
-24 -191 204 0
-24 -194 207 0
-24 -195 208 0
-24 -197 210 0
-24 -198 211 0
-24 -199 212 0
-37 -200 213 0
-37 -201 214 0
-37 -202 215 0
-37 -204 217 0
-37 -207 220 0
-37 -208 221 0
-37 -210 223 0
-37 -211 224 0
-37 -212 225 0
-50 -213 226 0
-50 -214 227 0
-50 -215 228 0
-50 -217 230 0
-50 -220 233 0
-50 -221 234 0
-50 -223 236 0
-50 -224 237 0
-50 -225 238 0
-192 2 205 0
-205 4 218 0
-218 6 231 0
-24 37 1 0
-37 50 3 0
-50 63 5 0
-24 -1 -8 38 0
-37 -3 -12 51 0
-50 -5 -16 64 0
-24 -1 -8 -206 0
-37 -3 -12 -219 0
-50 -5 -16 -232 0
-24 -1 -8 -35 0
-24 -1 -8 -41 0
-37 -3 -12 -48 0
-37 -3 -12 -54 0
-50 -5 -16 -61 0
-50 -5 -16 -67 0
-24 -2 -8 193 0
-37 -4 -12 206 0
-50 -6 -16 219 0
-24 -2 -8 -206 0
-37 -4 -12 -219 0
-50 -6 -16 -232 0
-192 -2 -8 206 0
-205 -4 -12 219 0
-218 -6 -16 232 0
-192 -1 -8 -206 0
-205 -3 -12 -219 0
-218 -5 -16 -232 0
-192 -1 -8 -258 0
-205 -3 -12 -271 0
-218 -5 -16 -284 0
-24 -8 -190 203 0
-24 -8 -196 209 0
-37 -12 -203 216 0
-37 -12 -209 222 0
-50 -16 -216 229 0
-50 -16 -222 235 0
-24 -1 -9 35 0
-37 -3 -13 48 0
-50 -5 -17 61 0
-24 -1 -9 -203 0
-37 -3 -13 -216 0
-50 -5 -17 -229 0
-24 -1 -9 -38 0
-24 -1 -9 -41 0
-37 -3 -13 -51 0
-37 -3 -13 -54 0
-50 -5 -17 -64 0
-50 -5 -17 -67 0
-24 -2 -9 190 0
-37 -4 -13 203 0
-50 -6 -17 216 0
-24 -2 -9 -203 0
-37 -4 -13 -216 0
-50 -6 -17 -229 0
-192 -2 -9 203 0
-205 -4 -13 216 0
-218 -6 -17 229 0
-192 -1 -9 -203 0
-205 -3 -13 -216 0
-218 -5 -17 -229 0
-192 -1 -9 -255 0
-205 -3 -13 -268 0
-218 -5 -17 -281 0
-24 -9 -193 206 0
-24 -9 -196 209 0
-37 -13 -206 219 0
-37 -13 -209 222 0
-50 -17 -219 232 0
-50 -17 -222 235 0
-24 -1 -10 41 0
-37 -3 -14 54 0
-50 -5 -18 67 0
-24 -1 -10 -209 0
-37 -3 -14 -222 0
-50 -5 -18 -235 0
-24 -1 -10 -38 0
-24 -1 -10 -35 0
-37 -3 -14 -51 0
-37 -3 -14 -48 0
-50 -5 -18 -64 0
-50 -5 -18 -61 0
-24 -2 -10 196 0
-37 -4 -14 209 0
-50 -6 -18 222 0
-24 -2 -10 -209 0
-37 -4 -14 -222 0
-50 -6 -18 -235 0
-192 -2 -10 209 0
-205 -4 -14 222 0
-218 -6 -18 235 0
-192 -1 -10 -209 0
-205 -3 -14 -222 0
-218 -5 -18 -235 0
-192 -1 -10 -261 0
-205 -3 -14 -274 0
-218 -5 -18 -287 0
-24 -10 -193 206 0
-24 -10 -190 203 0
-37 -14 -206 219 0
-37 -14 -203 216 0
-50 -18 -219 232 0
-50 -18 -216 229 0
-245 258 0
-258 271 0
-271 284 0
-25 -32 0
-25 -33 0
-25 -34 0
-25 -35 0
-25 -36 0
-25 -40 0
-25 -41 0
-25 -43 0
-25 -44 0
-38 -45 0
-38 -46 0
-38 -47 0
-38 -48 0
-38 -49 0
-38 -53 0
-38 -54 0
-38 -56 0
-38 -57 0
-51 -58 0
-51 -59 0
-51 -60 0
-51 -61 0
-51 -62 0
-51 -66 0
-51 -67 0
-51 -69 0
-51 -70 0
-25 -38 2 0
-38 -51 4 0
-51 -64 6 0
-25 -9 0
-38 -13 0
-51 -17 0
-25 -187 200 0
-25 -188 201 0
-25 -189 202 0
-25 -190 203 0
-25 -191 204 0
-25 -195 208 0
-25 -196 209 0
-25 -198 211 0
-25 -199 212 0
-38 -200 213 0
-38 -201 214 0
-38 -202 215 0
-38 -203 216 0
-38 -204 217 0
-38 -208 221 0
-38 -209 222 0
-38 -211 224 0
-38 -212 225 0
-51 -213 226 0
-51 -214 227 0
-51 -215 228 0
-51 -216 229 0
-51 -217 230 0
-51 -221 234 0
-51 -222 235 0
-51 -224 237 0
-51 -225 238 0
-193 2 206 0
-206 4 219 0
-219 6 232 0
-25 38 1 0
-38 51 3 0
-51 64 5 0
-25 -1 -7 37 0
-38 -3 -11 50 0
-51 -5 -15 63 0
-25 -1 -7 -205 0
-38 -3 -11 -218 0
-51 -5 -15 -231 0
-25 -1 -7 -39 0
-25 -1 -7 -42 0
-38 -3 -11 -52 0
-38 -3 -11 -55 0
-51 -5 -15 -65 0
-51 -5 -15 -68 0
-25 -2 -7 192 0
-38 -4 -11 205 0
-51 -6 -15 218 0
-25 -2 -7 -205 0
-38 -4 -11 -218 0
-51 -6 -15 -231 0
-193 -2 -7 205 0
-206 -4 -11 218 0
-219 -6 -15 231 0
-193 -1 -7 -205 0
-206 -3 -11 -218 0
-219 -5 -15 -231 0
-193 -1 -7 -257 0
-206 -3 -11 -270 0
-219 -5 -15 -283 0
-25 -7 -194 207 0
-25 -7 -197 210 0
-38 -11 -207 220 0
-38 -11 -210 223 0
-51 -15 -220 233 0
-51 -15 -223 236 0
-25 -1 -8 39 0
-38 -3 -12 52 0
-51 -5 -16 65 0
-25 -1 -8 -207 0
-38 -3 -12 -220 0
-51 -5 -16 -233 0
-25 -1 -8 -37 0
-25 -1 -8 -42 0
-38 -3 -12 -50 0
-38 -3 -12 -55 0
-51 -5 -16 -63 0
-51 -5 -16 -68 0
-25 -2 -8 194 0
-38 -4 -12 207 0
-51 -6 -16 220 0
-25 -2 -8 -207 0
-38 -4 -12 -220 0
-51 -6 -16 -233 0
-193 -2 -8 207 0
-206 -4 -12 220 0
-219 -6 -16 233 0
-193 -1 -8 -207 0
-206 -3 -12 -220 0
-219 -5 -16 -233 0
-193 -1 -8 -259 0
-206 -3 -12 -272 0
-219 -5 -16 -285 0
-25 -8 -192 205 0
-25 -8 -197 210 0
-38 -12 -205 218 0
-38 -12 -210 223 0
-51 -16 -218 231 0
-51 -16 -223 236 0
-25 -1 -10 42 0
-38 -3 -14 55 0
-51 -5 -18 68 0
-25 -1 -10 -210 0
-38 -3 -14 -223 0
-51 -5 -18 -236 0
-25 -1 -10 -37 0
-25 -1 -10 -39 0
-38 -3 -14 -50 0
-38 -3 -14 -52 0
-51 -5 -18 -63 0
-51 -5 -18 -65 0
-25 -2 -10 197 0
-38 -4 -14 210 0
-51 -6 -18 223 0
-25 -2 -10 -210 0
-38 -4 -14 -223 0
-51 -6 -18 -236 0
-193 -2 -10 210 0
-206 -4 -14 223 0
-219 -6 -18 236 0
-193 -1 -10 -210 0
-206 -3 -14 -223 0
-219 -5 -18 -236 0
-193 -1 -10 -262 0
-206 -3 -14 -275 0
-219 -5 -18 -288 0
-25 -10 -192 205 0
-25 -10 -194 207 0
-38 -14 -205 218 0
-38 -14 -207 220 0
-51 -18 -218 231 0
-51 -18 -220 233 0
-246 259 0
-259 272 0
-272 285 0
-26 -32 0
-26 -33 0
-26 -34 0
-26 -35 0
-26 -36 0
-26 -37 0
-26 -41 0
-26 -42 0
-26 -44 0
-39 -45 0
-39 -46 0
-39 -47 0
-39 -48 0
-39 -49 0
-39 -50 0
-39 -54 0
-39 -55 0
-39 -57 0
-52 -58 0
-52 -59 0
-52 -60 0
-52 -61 0
-52 -62 0
-52 -63 0
-52 -67 0
-52 -68 0
-52 -70 0
-26 -39 2 0
-39 -52 4 0
-52 -65 6 0
-26 -9 0
-39 -13 0
-52 -17 0
-26 -187 200 0
-26 -188 201 0
-26 -189 202 0
-26 -190 203 0
-26 -191 204 0
-26 -192 205 0
-26 -196 209 0
-26 -197 210 0
-26 -199 212 0
-39 -200 213 0
-39 -201 214 0
-39 -202 215 0
-39 -203 216 0
-39 -204 217 0
-39 -205 218 0
-39 -209 222 0
-39 -210 223 0
-39 -212 225 0
-52 -213 226 0
-52 -214 227 0
-52 -215 228 0
-52 -216 229 0
-52 -217 230 0
-52 -218 231 0
-52 -222 235 0
-52 -223 236 0
-52 -225 238 0
-194 2 207 0
-207 4 220 0
-220 6 233 0
-26 39 1 0
-39 52 3 0
-52 65 5 0
-26 -1 -7 38 0
-39 -3 -11 51 0
-52 -5 -15 64 0
-26 -1 -7 -206 0
-39 -3 -11 -219 0
-52 -5 -15 -232 0
-26 -1 -7 -40 0
-26 -1 -7 -43 0
-39 -3 -11 -53 0
-39 -3 -11 -56 0
-52 -5 -15 -66 0
-52 -5 -15 -69 0
-26 -2 -7 193 0
-39 -4 -11 206 0
-52 -6 -15 219 0
-26 -2 -7 -206 0
-39 -4 -11 -219 0
-52 -6 -15 -232 0
-194 -2 -7 206 0
-207 -4 -11 219 0
-220 -6 -15 232 0
-194 -1 -7 -206 0
-207 -3 -11 -219 0
-220 -5 -15 -232 0
-194 -1 -7 -258 0
-207 -3 -11 -271 0
-220 -5 -15 -284 0
-26 -7 -195 208 0
-26 -7 -198 211 0
-39 -11 -208 221 0
-39 -11 -211 224 0
-52 -15 -221 234 0
-52 -15 -224 237 0
-26 -1 -8 40 0
-39 -3 -12 53 0
-52 -5 -16 66 0
-26 -1 -8 -208 0
-39 -3 -12 -221 0
-52 -5 -16 -234 0
-26 -1 -8 -38 0
-26 -1 -8 -43 0
-39 -3 -12 -51 0
-39 -3 -12 -56 0
-52 -5 -16 -64 0
-52 -5 -16 -69 0
-26 -2 -8 195 0
-39 -4 -12 208 0
-52 -6 -16 221 0
-26 -2 -8 -208 0
-39 -4 -12 -221 0
-52 -6 -16 -234 0
-194 -2 -8 208 0
-207 -4 -12 221 0
-220 -6 -16 234 0
-194 -1 -8 -208 0
-207 -3 -12 -221 0
-220 -5 -16 -234 0
-194 -1 -8 -260 0
-207 -3 -12 -273 0
-220 -5 -16 -286 0
-26 -8 -193 206 0
-26 -8 -198 211 0
-39 -12 -206 219 0
-39 -12 -211 224 0
-52 -16 -219 232 0
-52 -16 -224 237 0
-26 -1 -10 43 0
-39 -3 -14 56 0
-52 -5 -18 69 0
-26 -1 -10 -211 0
-39 -3 -14 -224 0
-52 -5 -18 -237 0
-26 -1 -10 -38 0
-26 -1 -10 -40 0
-39 -3 -14 -51 0
-39 -3 -14 -53 0
-52 -5 -18 -64 0
-52 -5 -18 -66 0
-26 -2 -10 198 0
-39 -4 -14 211 0
-52 -6 -18 224 0
-26 -2 -10 -211 0
-39 -4 -14 -224 0
-52 -6 -18 -237 0
-194 -2 -10 211 0
-207 -4 -14 224 0
-220 -6 -18 237 0
-194 -1 -10 -211 0
-207 -3 -14 -224 0
-220 -5 -18 -237 0
-194 -1 -10 -263 0
-207 -3 -14 -276 0
-220 -5 -18 -289 0
-26 -10 -193 206 0
-26 -10 -195 208 0
-39 -14 -206 219 0
-39 -14 -208 221 0
-52 -18 -219 232 0
-52 -18 -221 234 0
-247 260 0
-260 273 0
-273 286 0
-27 -32 0
-27 -33 0
-27 -34 0
-27 -35 0
-27 -37 0
-27 -38 0
-27 -41 0
-27 -42 0
-27 -43 0
-40 -45 0
-40 -46 0
-40 -47 0
-40 -48 0
-40 -50 0
-40 -51 0
-40 -54 0
-40 -55 0
-40 -56 0
-53 -58 0
-53 -59 0
-53 -60 0
-53 -61 0
-53 -63 0
-53 -64 0
-53 -67 0
-53 -68 0
-53 -69 0
-27 -40 2 0
-40 -53 4 0
-53 -66 6 0
-27 -8 0
-40 -12 0
-53 -16 0
-27 -187 200 0
-27 -188 201 0
-27 -189 202 0
-27 -190 203 0
-27 -192 205 0
-27 -193 206 0
-27 -196 209 0
-27 -197 210 0
-27 -198 211 0
-40 -200 213 0
-40 -201 214 0
-40 -202 215 0
-40 -203 216 0
-40 -205 218 0
-40 -206 219 0
-40 -209 222 0
-40 -210 223 0
-40 -211 224 0
-53 -213 226 0
-53 -214 227 0
-53 -215 228 0
-53 -216 229 0
-53 -218 231 0
-53 -219 232 0
-53 -222 235 0
-53 -223 236 0
-53 -224 237 0
-195 2 208 0
-208 4 221 0
-221 6 234 0
-27 40 1 0
-40 53 3 0
-53 66 5 0
-27 -1 -7 39 0
-40 -3 -11 52 0
-53 -5 -15 65 0
-27 -1 -7 -207 0
-40 -3 -11 -220 0
-53 -5 -15 -233 0
-27 -1 -7 -36 0
-27 -1 -7 -44 0
-40 -3 -11 -49 0
-40 -3 -11 -57 0
-53 -5 -15 -62 0
-53 -5 -15 -70 0
-27 -2 -7 194 0
-40 -4 -11 207 0
-53 -6 -15 220 0
-27 -2 -7 -207 0
-40 -4 -11 -220 0
-53 -6 -15 -233 0
-195 -2 -7 207 0
-208 -4 -11 220 0
-221 -6 -15 233 0
-195 -1 -7 -207 0
-208 -3 -11 -220 0
-221 -5 -15 -233 0
-195 -1 -7 -259 0
-208 -3 -11 -272 0
-221 -5 -15 -285 0
-27 -7 -191 204 0
-27 -7 -199 212 0
-40 -11 -204 217 0
-40 -11 -212 225 0
-53 -15 -217 230 0
-53 -15 -225 238 0
-27 -1 -9 36 0
-40 -3 -13 49 0
-53 -5 -17 62 0
-27 -1 -9 -204 0
-40 -3 -13 -217 0
-53 -5 -17 -230 0
-27 -1 -9 -39 0
-27 -1 -9 -44 0
-40 -3 -13 -52 0
-40 -3 -13 -57 0
-53 -5 -17 -65 0
-53 -5 -17 -70 0
-27 -2 -9 191 0
-40 -4 -13 204 0
-53 -6 -17 217 0
-27 -2 -9 -204 0
-40 -4 -13 -217 0
-53 -6 -17 -230 0
-195 -2 -9 204 0
-208 -4 -13 217 0
-221 -6 -17 230 0
-195 -1 -9 -204 0
-208 -3 -13 -217 0
-221 -5 -17 -230 0
-195 -1 -9 -256 0
-208 -3 -13 -269 0
-221 -5 -17 -282 0
-27 -9 -194 207 0
-27 -9 -199 212 0
-40 -13 -207 220 0
-40 -13 -212 225 0
-53 -17 -220 233 0
-53 -17 -225 238 0
-27 -1 -10 44 0
-40 -3 -14 57 0
-53 -5 -18 70 0
-27 -1 -10 -212 0
-40 -3 -14 -225 0
-53 -5 -18 -238 0
-27 -1 -10 -39 0
-27 -1 -10 -36 0
-40 -3 -14 -52 0
-40 -3 -14 -49 0
-53 -5 -18 -65 0
-53 -5 -18 -62 0
-27 -2 -10 199 0
-40 -4 -14 212 0
-53 -6 -18 225 0
-27 -2 -10 -212 0
-40 -4 -14 -225 0
-53 -6 -18 -238 0
-195 -2 -10 212 0
-208 -4 -14 225 0
-221 -6 -18 238 0
-195 -1 -10 -212 0
-208 -3 -14 -225 0
-221 -5 -18 -238 0
-195 -1 -10 -264 0
-208 -3 -14 -277 0
-221 -5 -18 -290 0
-27 -10 -194 207 0
-27 -10 -191 204 0
-40 -14 -207 220 0
-40 -14 -204 217 0
-53 -18 -220 233 0
-53 -18 -217 230 0
-248 261 0
-261 274 0
-274 287 0
-28 -32 0
-28 -33 0
-28 -34 0
-28 -35 0
-28 -36 0
-28 -38 0
-28 -39 0
-28 -40 0
-28 -43 0
-28 -44 0
-41 -45 0
-41 -46 0
-41 -47 0
-41 -48 0
-41 -49 0
-41 -51 0
-41 -52 0
-41 -53 0
-41 -56 0
-41 -57 0
-54 -58 0
-54 -59 0
-54 -60 0
-54 -61 0
-54 -62 0
-54 -64 0
-54 -65 0
-54 -66 0
-54 -69 0
-54 -70 0
-28 -41 2 0
-41 -54 4 0
-54 -67 6 0
-28 -7 0
-28 -10 0
-41 -11 0
-41 -14 0
-54 -15 0
-54 -18 0
-28 -187 200 0
-28 -188 201 0
-28 -189 202 0
-28 -190 203 0
-28 -191 204 0
-28 -193 206 0
-28 -194 207 0
-28 -195 208 0
-28 -198 211 0
-28 -199 212 0
-41 -200 213 0
-41 -201 214 0
-41 -202 215 0
-41 -203 216 0
-41 -204 217 0
-41 -206 219 0
-41 -207 220 0
-41 -208 221 0
-41 -211 224 0
-41 -212 225 0
-54 -213 226 0
-54 -214 227 0
-54 -215 228 0
-54 -216 229 0
-54 -217 230 0
-54 -219 232 0
-54 -220 233 0
-54 -221 234 0
-54 -224 237 0
-54 -225 238 0
-196 2 209 0
-209 4 222 0
-222 6 235 0
-28 41 1 0
-41 54 3 0
-54 67 5 0
-28 -1 -8 42 0
-41 -3 -12 55 0
-54 -5 -16 68 0
-28 -1 -8 -210 0
-41 -3 -12 -223 0
-54 -5 -16 -236 0
-28 -1 -8 -37 0
-41 -3 -12 -50 0
-54 -5 -16 -63 0
-28 -2 -8 197 0
-41 -4 -12 210 0
-54 -6 -16 223 0
-28 -2 -8 -210 0
-41 -4 -12 -223 0
-54 -6 -16 -236 0
-196 -2 -8 210 0
-209 -4 -12 223 0
-222 -6 -16 236 0
-196 -1 -8 -210 0
-209 -3 -12 -223 0
-222 -5 -16 -236 0
-196 -1 -8 -262 0
-209 -3 -12 -275 0
-222 -5 -16 -288 0
-28 -8 -192 205 0
-41 -12 -205 218 0
-54 -16 -218 231 0
-28 -1 -9 37 0
-41 -3 -13 50 0
-54 -5 -17 63 0
-28 -1 -9 -205 0
-41 -3 -13 -218 0
-54 -5 -17 -231 0
-28 -1 -9 -42 0
-41 -3 -13 -55 0
-54 -5 -17 -68 0
-28 -2 -9 192 0
-41 -4 -13 205 0
-54 -6 -17 218 0
-28 -2 -9 -205 0
-41 -4 -13 -218 0
-54 -6 -17 -231 0
-196 -2 -9 205 0
-209 -4 -13 218 0
-222 -6 -17 231 0
-196 -1 -9 -205 0
-209 -3 -13 -218 0
-222 -5 -17 -231 0
-196 -1 -9 -257 0
-209 -3 -13 -270 0
-222 -5 -17 -283 0
-28 -9 -197 210 0
-41 -13 -210 223 0
-54 -17 -223 236 0
-249 262 0
-262 275 0
-275 288 0
-29 -32 0
-29 -33 0
-29 -34 0
-29 -35 0
-29 -36 0
-29 -37 0
-29 -39 0
-29 -40 0
-29 -44 0
-42 -45 0
-42 -46 0
-42 -47 0
-42 -48 0
-42 -49 0
-42 -50 0
-42 -52 0
-42 -53 0
-42 -57 0
-55 -58 0
-55 -59 0
-55 -60 0
-55 -61 0
-55 -62 0
-55 -63 0
-55 -65 0
-55 -66 0
-55 -70 0
-29 -42 2 0
-42 -55 4 0
-55 -68 6 0
-29 -10 0
-42 -14 0
-55 -18 0
-29 -187 200 0
-29 -188 201 0
-29 -189 202 0
-29 -190 203 0
-29 -191 204 0
-29 -192 205 0
-29 -194 207 0
-29 -195 208 0
-29 -199 212 0
-42 -200 213 0
-42 -201 214 0
-42 -202 215 0
-42 -203 216 0
-42 -204 217 0
-42 -205 218 0
-42 -207 220 0
-42 -208 221 0
-42 -212 225 0
-55 -213 226 0
-55 -214 227 0
-55 -215 228 0
-55 -216 229 0
-55 -217 230 0
-55 -218 231 0
-55 -220 233 0
-55 -221 234 0
-55 -225 238 0
-197 2 210 0
-210 4 223 0
-223 6 236 0
-29 42 1 0
-42 55 3 0
-55 68 5 0
-29 -1 -7 41 0
-42 -3 -11 54 0
-55 -5 -15 67 0
-29 -1 -7 -209 0
-42 -3 -11 -222 0
-55 -5 -15 -235 0
-29 -1 -7 -43 0
-29 -1 -7 -38 0
-42 -3 -11 -56 0
-42 -3 -11 -51 0
-55 -5 -15 -69 0
-55 -5 -15 -64 0
-29 -2 -7 196 0
-42 -4 -11 209 0
-55 -6 -15 222 0
-29 -2 -7 -209 0
-42 -4 -11 -222 0
-55 -6 -15 -235 0
-197 -2 -7 209 0
-210 -4 -11 222 0
-223 -6 -15 235 0
-197 -1 -7 -209 0
-210 -3 -11 -222 0
-223 -5 -15 -235 0
-197 -1 -7 -261 0
-210 -3 -11 -274 0
-223 -5 -15 -287 0
-29 -7 -198 211 0
-29 -7 -193 206 0
-42 -11 -211 224 0
-42 -11 -206 219 0
-55 -15 -224 237 0
-55 -15 -219 232 0
-29 -1 -8 43 0
-42 -3 -12 56 0
-55 -5 -16 69 0
-29 -1 -8 -211 0
-42 -3 -12 -224 0
-55 -5 -16 -237 0
-29 -1 -8 -41 0
-29 -1 -8 -38 0
-42 -3 -12 -54 0
-42 -3 -12 -51 0
-55 -5 -16 -67 0
-55 -5 -16 -64 0
-29 -2 -8 198 0
-42 -4 -12 211 0
-55 -6 -16 224 0
-29 -2 -8 -211 0
-42 -4 -12 -224 0
-55 -6 -16 -237 0
-197 -2 -8 211 0
-210 -4 -12 224 0
-223 -6 -16 237 0
-197 -1 -8 -211 0
-210 -3 -12 -224 0
-223 -5 -16 -237 0
-197 -1 -8 -263 0
-210 -3 -12 -276 0
-223 -5 -16 -289 0
-29 -8 -196 209 0
-29 -8 -193 206 0
-42 -12 -209 222 0
-42 -12 -206 219 0
-55 -16 -222 235 0
-55 -16 -219 232 0
-29 -1 -9 38 0
-42 -3 -13 51 0
-55 -5 -17 64 0
-29 -1 -9 -206 0
-42 -3 -13 -219 0
-55 -5 -17 -232 0
-29 -1 -9 -41 0
-29 -1 -9 -43 0
-42 -3 -13 -54 0
-42 -3 -13 -56 0
-55 -5 -17 -67 0
-55 -5 -17 -69 0
-29 -2 -9 193 0
-42 -4 -13 206 0
-55 -6 -17 219 0
-29 -2 -9 -206 0
-42 -4 -13 -219 0
-55 -6 -17 -232 0
-197 -2 -9 206 0
-210 -4 -13 219 0
-223 -6 -17 232 0
-197 -1 -9 -206 0
-210 -3 -13 -219 0
-223 -5 -17 -232 0
-197 -1 -9 -258 0
-210 -3 -13 -271 0
-223 -5 -17 -284 0
-29 -9 -196 209 0
-29 -9 -198 211 0
-42 -13 -209 222 0
-42 -13 -211 224 0
-55 -17 -222 235 0
-55 -17 -224 237 0
-250 263 0
-263 276 0
-276 289 0
-30 -32 0
-30 -33 0
-30 -34 0
-30 -35 0
-30 -36 0
-30 -37 0
-30 -38 0
-30 -40 0
-30 -41 0
-43 -45 0
-43 -46 0
-43 -47 0
-43 -48 0
-43 -49 0
-43 -50 0
-43 -51 0
-43 -53 0
-43 -54 0
-56 -58 0
-56 -59 0
-56 -60 0
-56 -61 0
-56 -62 0
-56 -63 0
-56 -64 0
-56 -66 0
-56 -67 0
-30 -43 2 0
-43 -56 4 0
-56 -69 6 0
-30 -10 0
-43 -14 0
-56 -18 0
-30 -187 200 0
-30 -188 201 0
-30 -189 202 0
-30 -190 203 0
-30 -191 204 0
-30 -192 205 0
-30 -193 206 0
-30 -195 208 0
-30 -196 209 0
-43 -200 213 0
-43 -201 214 0
-43 -202 215 0
-43 -203 216 0
-43 -204 217 0
-43 -205 218 0
-43 -206 219 0
-43 -208 221 0
-43 -209 222 0
-56 -213 226 0
-56 -214 227 0
-56 -215 228 0
-56 -216 229 0
-56 -217 230 0
-56 -218 231 0
-56 -219 232 0
-56 -221 234 0
-56 -222 235 0
-198 2 211 0
-211 4 224 0
-224 6 237 0
-30 43 1 0
-43 56 3 0
-56 69 5 0
-30 -1 -7 42 0
-43 -3 -11 55 0
-56 -5 -15 68 0
-30 -1 -7 -210 0
-43 -3 -11 -223 0
-56 -5 -15 -236 0
-30 -1 -7 -44 0
-30 -1 -7 -39 0
-43 -3 -11 -57 0
-43 -3 -11 -52 0
-56 -5 -15 -70 0
-56 -5 -15 -65 0
-30 -2 -7 197 0
-43 -4 -11 210 0
-56 -6 -15 223 0
-30 -2 -7 -210 0
-43 -4 -11 -223 0
-56 -6 -15 -236 0
-198 -2 -7 210 0
-211 -4 -11 223 0
-224 -6 -15 236 0
-198 -1 -7 -210 0
-211 -3 -11 -223 0
-224 -5 -15 -236 0
-198 -1 -7 -262 0
-211 -3 -11 -275 0
-224 -5 -15 -288 0
-30 -7 -199 212 0
-30 -7 -194 207 0
-43 -11 -212 225 0
-43 -11 -207 220 0
-56 -15 -225 238 0
-56 -15 -220 233 0
-30 -1 -8 44 0
-43 -3 -12 57 0
-56 -5 -16 70 0
-30 -1 -8 -212 0
-43 -3 -12 -225 0
-56 -5 -16 -238 0
-30 -1 -8 -42 0
-30 -1 -8 -39 0
-43 -3 -12 -55 0
-43 -3 -12 -52 0
-56 -5 -16 -68 0
-56 -5 -16 -65 0
-30 -2 -8 199 0
-43 -4 -12 212 0
-56 -6 -16 225 0
-30 -2 -8 -212 0
-43 -4 -12 -225 0
-56 -6 -16 -238 0
-198 -2 -8 212 0
-211 -4 -12 225 0
-224 -6 -16 238 0
-198 -1 -8 -212 0
-211 -3 -12 -225 0
-224 -5 -16 -238 0
-198 -1 -8 -264 0
-211 -3 -12 -277 0
-224 -5 -16 -290 0
-30 -8 -197 210 0
-30 -8 -194 207 0
-43 -12 -210 223 0
-43 -12 -207 220 0
-56 -16 -223 236 0
-56 -16 -220 233 0
-30 -1 -9 39 0
-43 -3 -13 52 0
-56 -5 -17 65 0
-30 -1 -9 -207 0
-43 -3 -13 -220 0
-56 -5 -17 -233 0
-30 -1 -9 -42 0
-30 -1 -9 -44 0
-43 -3 -13 -55 0
-43 -3 -13 -57 0
-56 -5 -17 -68 0
-56 -5 -17 -70 0
-30 -2 -9 194 0
-43 -4 -13 207 0
-56 -6 -17 220 0
-30 -2 -9 -207 0
-43 -4 -13 -220 0
-56 -6 -17 -233 0
-198 -2 -9 207 0
-211 -4 -13 220 0
-224 -6 -17 233 0
-198 -1 -9 -207 0
-211 -3 -13 -220 0
-224 -5 -17 -233 0
-198 -1 -9 -259 0
-211 -3 -13 -272 0
-224 -5 -17 -285 0
-30 -9 -197 210 0
-30 -9 -199 212 0
-43 -13 -210 223 0
-43 -13 -212 225 0
-56 -17 -223 236 0
-56 -17 -225 238 0
-251 264 0
-264 277 0
-277 290 0
-31 -32 0
-31 -33 0
-31 -34 0
-31 -35 0
-31 -36 0
-31 -37 0
-31 -38 0
-31 -39 0
-31 -41 0
-31 -42 0
-44 -45 0
-44 -46 0
-44 -47 0
-44 -48 0
-44 -49 0
-44 -50 0
-44 -51 0
-44 -52 0
-44 -54 0
-44 -55 0
-57 -58 0
-57 -59 0
-57 -60 0
-57 -61 0
-57 -62 0
-57 -63 0
-57 -64 0
-57 -65 0
-57 -67 0
-57 -68 0
-31 -44 2 0
-44 -57 4 0
-57 -70 6 0
-31 -8 0
-31 -10 0
-44 -12 0
-44 -14 0
-57 -16 0
-57 -18 0
-31 -187 200 0
-31 -188 201 0
-31 -189 202 0
-31 -190 203 0
-31 -191 204 0
-31 -192 205 0
-31 -193 206 0
-31 -194 207 0
-31 -196 209 0
-31 -197 210 0
-44 -200 213 0
-44 -201 214 0
-44 -202 215 0
-44 -203 216 0
-44 -204 217 0
-44 -205 218 0
-44 -206 219 0
-44 -207 220 0
-44 -209 222 0
-44 -210 223 0
-57 -213 226 0
-57 -214 227 0
-57 -215 228 0
-57 -216 229 0
-57 -217 230 0
-57 -218 231 0
-57 -219 232 0
-57 -220 233 0
-57 -222 235 0
-57 -223 236 0
-199 2 212 0
-212 4 225 0
-225 6 238 0
-31 44 1 0
-44 57 3 0
-57 70 5 0
-31 -1 -7 43 0
-44 -3 -11 56 0
-57 -5 -15 69 0
-31 -1 -7 -211 0
-44 -3 -11 -224 0
-57 -5 -15 -237 0
-31 -1 -7 -40 0
-44 -3 -11 -53 0
-57 -5 -15 -66 0
-31 -2 -7 198 0
-44 -4 -11 211 0
-57 -6 -15 224 0
-31 -2 -7 -211 0
-44 -4 -11 -224 0
-57 -6 -15 -237 0
-199 -2 -7 211 0
-212 -4 -11 224 0
-225 -6 -15 237 0
-199 -1 -7 -211 0
-212 -3 -11 -224 0
-225 -5 -15 -237 0
-199 -1 -7 -263 0
-212 -3 -11 -276 0
-225 -5 -15 -289 0
-31 -7 -195 208 0
-44 -11 -208 221 0
-57 -15 -221 234 0
-31 -1 -9 40 0
-44 -3 -13 53 0
-57 -5 -17 66 0
-31 -1 -9 -208 0
-44 -3 -13 -221 0
-57 -5 -17 -234 0
-31 -1 -9 -43 0
-44 -3 -13 -56 0
-57 -5 -17 -69 0
-31 -2 -9 195 0
-44 -4 -13 208 0
-57 -6 -17 221 0
-31 -2 -9 -208 0
-44 -4 -13 -221 0
-57 -6 -17 -234 0
-199 -2 -9 208 0
-212 -4 -13 221 0
-225 -6 -17 234 0
-199 -1 -9 -208 0
-212 -3 -13 -221 0
-225 -5 -17 -234 0
-199 -1 -9 -260 0
-212 -3 -13 -273 0
-225 -5 -17 -286 0
-31 -9 -198 211 0
-44 -13 -211 224 0
-57 -17 -224 237 0
62 0
